1046
0	44	88	146	243	252	373	450	546	614
0	70	181	316	373	450	581	662	720	825
0	158	243	257	331	450	497	533	625	705
0	169	186	254	450	497	535	542	665	700
0	91	182	257	345	531	546	558	700	776
0	146	239	316	361	419	542	610	793	800
71	268	419	445	451	610	705	761	840	876
0	239	546	587	665	741	825	855	931	967
0	88	169	182	307	361	587	800	840	971
82	253	307	374	490	662	668	826	908	918
